c Sudoku solution
p cnf 729 0
191 0
237 0
255 0
273 0
299 0
334 0
348 0
382 0
523 0
565 0
577 0
639 0
644 0
652 0
763 0
831 0
874 0
897 0
187 0
284 0
178 0
926 0
942 0
957 0
447 0
453 0
143 0
313 0
883 0
933 0
367 0
693 0
968 0
754 0
741 0
845 0
914 0
995 0
424 0
594 0
246 0
549 0
159 0
164 0
262 0
351 0
329 0
558 0
856 0
869 0
719 0
727 0
735 0
617 0
438 0
688 0
485 0
479 0
492 0
625 0
115 0
122 0
136 0
221 0
218 0
812 0
828 0
532 0
772 0
375 0
396 0
676 0
581 0
516 0
411 0
466 0
661 0
971 0
989 0
786 0
798 0
